1488
0	91	129	224	286
29	100	286	358	471
0	148	268	378	390
175	272	390	404	489
0	256	343	369	399
14	278	330	380	435
330	427	489	539	579
98	376	488	520	543
72	148	521	613	653
422	606	673	737	834
507	585	649	679	741
178	369	585	621	735
187	667	790	800	924
762	857	956	1014	1112
520	653	765	857	961
714	737	889	1045	1110
526	906	919	1112	1201
563	716	957	1046	1201
800	919	970	1280	1369
660	869	970	1369	1443
